sat
(:arith-lower         18
 :arith-make-feasible 8
 :arith-max-columns   33
 :arith-max-rows      13
 :arith-upper         24
 :binary-propagations 15
 :conflicts           1
 :decisions           7
 :final-checks        1
 :max-memory          19.02
 :memory              18.69
 :mk-bool-var         42
 :mk-clause-binary    25
 :num-allocs          97563
 :num-checks          1
 :propagations        15
 :rlimit-count        4304
 :solve-eqs-elim-vars 14
 :solve-eqs-steps     44
 :time                0.00
 :total-time          0.02)
